results_rootrelaxation/bin012_070_033.srr.sol
solution status: optimal solution found
objective value:                     7.48770491803279
_var301_                             0.15983606557377 	(obj:1)
_var731_                           0.0860655737704917 	(obj:0)
_var768_                           0.0758196721311465 	(obj:1)
_var774_                            0.233606557377047 	(obj:1)
_var775_                            0.221311475409836 	(obj:0)
_var777_                            0.233606557377049 	(obj:0)
_var786_                           0.0881147540983609 	(obj:0)
_var787_                           0.0881147540983608 	(obj:1)
_var792_                            0.319672131147541 	(obj:0)
_var794_                            0.145491803278687 	(obj:1)
_var798_                            0.280737704918034 	(obj:0)
_var813_                           0.0717213114754088 	(obj:1)
_var818_                            0.145491803278688 	(obj:1)
_var826_                            0.135245901639344 	(obj:0)
_var829_                            0.442622950819674 	(obj:1)
_var830_                           0.0307377049180328 	(obj:0)
_var833_                            0.540983606557378 	(obj:1)
_var834_                            0.120901639344262 	(obj:1)
_var835_                            0.196721311475411 	(obj:1)
_var838_                            0.723360655737705 	(obj:1)
_var846_                            0.319672131147541 	(obj:1)
_var847_                           0.0389344262295066 	(obj:1)
_var848_                            0.604508196721312 	(obj:0)
_var853_                            0.543032786885246 	(obj:0)
_var854_                           0.0266393442622953 	(obj:1)
_var856_                            0.778688524590164 	(obj:1)
_var858_                            0.356557377049181 	(obj:0)
_var859_                            0.178278688524591 	(obj:0)
_var862_                           0.0184426229508212 	(obj:1)
_var865_                            0.260245901639344 	(obj:1)
_var869_                             0.14549180327869 	(obj:1)
_var871_                           0.0245901639344263 	(obj:1)
_var872_                           0.0430327868852475 	(obj:2)
_var876_                            0.323770491803279 	(obj:0)
_var877_                           0.0922131147540979 	(obj:1)
_var881_                           0.0819672131147529 	(obj:0)
_var882_                           0.0758196721311487 	(obj:1)
_var883_                           0.0614754098360661 	(obj:2)
_var885_                             0.15983606557377 	(obj:0)
_var886_                           0.0409836065573759 	(obj:0)
_var887_                           0.0778688524590162 	(obj:1)
_var888_                            0.172131147540984 	(obj:0)
_var890_                            0.252049180327869 	(obj:1)
_var894_                            0.590163934426228 	(obj:2)
_var895_                                         0.25 	(obj:0)
_var898_                            0.151639344262295 	(obj:0)
_var900_                           0.0717213114754088 	(obj:1)
_var901_                            0.139344262295082 	(obj:1)
_var903_                            0.092213114754097 	(obj:2)
_var904_                            0.163934426229509 	(obj:0)
_var905_                           0.0471311475409834 	(obj:0)
_var906_                           0.0778688524590164 	(obj:1)
_var908_                           0.0245901639344276 	(obj:1)
_var911_                            0.120901639344262 	(obj:2)
_var913_                           0.0430327868852458 	(obj:0)
_var915_                           0.0881147540983618 	(obj:1)
_var916_                           0.0307377049180328 	(obj:1)
_var917_                           0.0286885245901646 	(obj:2)
_var919_                          0.00614754098360748 	(obj:2)
_var920_                           0.0573770491803273 	(obj:2)
